NAME          
ROWS
 N  OBJ
 L  c1
 L  c2
COLUMNS
    MARKER    'MARKER'                 'INTORG'
    x[1]      c1        931
    x[1]      c2        553
    x[1]      OBJ       -128
    x[2]      c1        849
    x[2]      c2        267
    x[2]      OBJ       -205
    x[3]      c1        773
    x[3]      c2        71
    x[3]      OBJ       -397
    x[4]      c1        992
    x[4]      c2        686
    x[4]      OBJ       -21
    x[5]      c1        28
    x[5]      c2        448
    x[5]      OBJ       -344
    x[6]      c1        281
    x[6]      c2        699
    x[6]      OBJ       -300
    x[7]      c1        194
    x[7]      c2        87
    x[7]      OBJ       -92
    x[8]      c1        14
    x[8]      c2        419
    x[8]      OBJ       -352
    x[9]      c1        961
    x[9]      c2        755
    x[9]      OBJ       -10
    x[10]     c1        91
    x[10]     c2        935
    x[10]     OBJ       -822
    x[11]     c1        817
    x[11]     c2        481
    x[11]     OBJ       -109
    x[12]     c1        949
    x[12]     c2        191
    x[12]     OBJ       -389
    x[13]     c1        176
    x[13]     c2        403
    x[13]     OBJ       -17
    x[14]     c1        874
    x[14]     c2        170
    x[14]     OBJ       -457
    x[15]     c1        887
    x[15]     c2        892
    x[15]     OBJ       -268
    x[16]     c1        70
    x[16]     c2        9
    x[16]     OBJ       -627
    x[17]     c1        697
    x[17]     c2        429
    x[17]     OBJ       -377
    x[18]     c1        613
    x[18]     c2        347
    x[18]     OBJ       -666
    x[19]     c1        863
    x[19]     c2        640
    x[19]     OBJ       -391
    x[20]     c1        456
    x[20]     c2        178
    x[20]     OBJ       -984
    x[21]     c1        797
    x[21]     c2        493
    x[21]     OBJ       -542
    x[22]     c1        210
    x[22]     c2        153
    x[22]     OBJ       -723
    x[23]     c1        889
    x[23]     c2        259
    x[23]     OBJ       -965
    x[24]     c1        497
    x[24]     c2        83
    x[24]     OBJ       -120
    x[25]     c1        109
    x[25]     c2        774
    x[25]     OBJ       -904
    x[26]     c1        897
    x[26]     c2        936
    x[26]     OBJ       -902
    x[27]     c1        522
    x[27]     c2        737
    x[27]     OBJ       -517
    x[28]     c1        565
    x[28]     c2        984
    x[28]     OBJ       -196
    x[29]     c1        883
    x[29]     c2        314
    x[29]     OBJ       -261
    x[30]     c1        565
    x[30]     c2        400
    x[30]     OBJ       -862
    x[31]     c1        732
    x[31]     c2        773
    x[31]     OBJ       -86
    x[32]     c1        117
    x[32]     c2        652
    x[32]     OBJ       -458
    x[33]     c1        234
    x[33]     c2        13
    x[33]     OBJ       -421
    x[34]     c1        742
    x[34]     c2        66
    x[34]     OBJ       -58
    x[35]     c1        776
    x[35]     c2        208
    x[35]     OBJ       -894
RHS
    rhs       c1        10026
    rhs       c2        7752
RANGES
BOUNDS
 BV bounds    x[1]
 BV bounds    x[2]
 BV bounds    x[3]
 BV bounds    x[4]
 BV bounds    x[5]
 BV bounds    x[6]
 BV bounds    x[7]
 BV bounds    x[8]
 BV bounds    x[9]
 BV bounds    x[10]
 BV bounds    x[11]
 BV bounds    x[12]
 BV bounds    x[13]
 BV bounds    x[14]
 BV bounds    x[15]
 BV bounds    x[16]
 BV bounds    x[17]
 BV bounds    x[18]
 BV bounds    x[19]
 BV bounds    x[20]
 BV bounds    x[21]
 BV bounds    x[22]
 BV bounds    x[23]
 BV bounds    x[24]
 BV bounds    x[25]
 BV bounds    x[26]
 BV bounds    x[27]
 BV bounds    x[28]
 BV bounds    x[29]
 BV bounds    x[30]
 BV bounds    x[31]
 BV bounds    x[32]
 BV bounds    x[33]
 BV bounds    x[34]
 BV bounds    x[35]
ENDATA
